(set-logic QF_FPBV)
(set-option :produce-models true)
(set-info :source |Random FP created by PyMPF|)
(set-info :category random)
(set-info :status sat)
;; fp.from.sbv(BitVec 8)
(declare-const x (_ BitVec 8))
(assert (bvsge x #b10000000))
;; x should be -128
(declare-const r Float32)
(assert (= r ((_ to_fp 8 24) RTP x)))
(assert (fp.geq r (fp #b1 #b10000110 #b00000000000000000000000)))
(check-sat)
(exit)
